NAME : rnd8_50.tsp
TYPE : TSP
DIMENSION : 50
EDGE_WEIGHT_TYPE : EUC_2D
NODE_COORD_SECTION
1 990 361
2 166 485
3 491 94
4 464 971
5 226 35
6 872 233
7 16 726
8 624 748
9 419 141
10 321 104
11 398 952
12 890 13
13 677 228
14 241 593
15 87 504
16 803 637
17 331 328
18 945 151
19 334 604
20 449 914
21 870 468
22 337 401
23 795 726
24 905 794
25 768 339
26 966 724
27 214 57
28 376 685
29 260 116
30 928 940
31 21 417
32 430 142
33 490 885
34 683 446
35 211 520
36 928 846
37 369 662
38 896 171
39 557 267
40 372 163
41 926 898
42 405 196
43 358 524
44 442 278
45 957 541
46 881 392
47 459 608
48 309 365
49 291 708
50 440 882
